clingo version 5.6.2
Reading from ...togen_asp_scripts/ijp_expt_cases-39.dl
UNKNOWN

Models       : 0+
Calls        : 1
Time         : 0.000s (Solving: 0.00s 1st Model: 0.00s Unsat: 0.00s)
CPU Time     : 0.000s
